0 4956
2401 4782
4802 4638
7203 4532
9604 4457
12005 4405
14406 4353
16807 4322
19208 4291
21609 4272
24010 4245
26411 4211
28812 4198
31213 4176
33614 4152
36015 4148
38416 4121
40817 4117
43218 4107
45619 4070
48020 4063
50421 4054
52822 4051
55223 4038
57624 4020
60025 4017
62426 4013
64827 4007
